\ Model RRP
\ LP format - for model browsing. Use MPS format to capture full model detail.
Maximize
  z_i[1] + z_i[2] + z_i[3]
Subject To
 R0: x_kij[0,0,1] + x_kij[0,0,2] + x_kij[0,0,3] + x_kij[0,0,7] = 1
 R1: x_kij[0,0,7] + x_kij[0,4,7] + x_kij[0,5,7] + x_kij[0,6,7] = 1
 R2: - x_kij[0,0,1] + x_kij[0,1,2] + x_kij[0,1,3] + x_kij[0,1,4]
   + x_kij[0,1,5] + x_kij[0,1,6] + x_kij[0,1,7] - x_kij[0,2,1]
   - x_kij[0,3,1] - x_kij[0,4,1] - x_kij[0,5,1] - x_kij[0,6,1] = 0
 R3: - x_kij[0,0,2] - x_kij[0,1,2] + x_kij[0,2,1] + x_kij[0,2,3]
   + x_kij[0,2,4] + x_kij[0,2,5] + x_kij[0,2,6] + x_kij[0,2,7]
   - x_kij[0,3,2] - x_kij[0,4,2] - x_kij[0,5,2] - x_kij[0,6,2] = 0
 R4: - x_kij[0,0,3] - x_kij[0,1,3] - x_kij[0,2,3] + x_kij[0,3,1]
   + x_kij[0,3,2] + x_kij[0,3,4] + x_kij[0,3,5] + x_kij[0,3,6]
   + x_kij[0,3,7] - x_kij[0,4,3] - x_kij[0,5,3] - x_kij[0,6,3] = 0
 R5: - x_kij[0,0,4] - x_kij[0,1,4] - x_kij[0,2,4] - x_kij[0,3,4]
   + x_kij[0,4,1] + x_kij[0,4,2] + x_kij[0,4,3] + x_kij[0,4,5]
   + x_kij[0,4,6] + x_kij[0,4,7] - x_kij[0,5,4] - x_kij[0,6,4] = 0
 R6: - x_kij[0,0,5] - x_kij[0,1,5] - x_kij[0,2,5] - x_kij[0,3,5]
   - x_kij[0,4,5] + x_kij[0,5,1] + x_kij[0,5,2] + x_kij[0,5,3]
   + x_kij[0,5,4] + x_kij[0,5,6] + x_kij[0,5,7] - x_kij[0,6,5] = 0
 R7: - x_kij[0,0,6] - x_kij[0,1,6] - x_kij[0,2,6] - x_kij[0,3,6]
   - x_kij[0,4,6] - x_kij[0,5,6] + x_kij[0,6,1] + x_kij[0,6,2]
   + x_kij[0,6,3] + x_kij[0,6,4] + x_kij[0,6,5] + x_kij[0,6,7] = 0
 R8: x_kij[0,1,0] + x_kij[0,1,2] + x_kij[0,1,3] + x_kij[0,1,4]
   + x_kij[0,1,5] + x_kij[0,1,6] + x_kij[0,1,7] - x_kij[0,4,5]
   - x_kij[0,4,6] - x_kij[0,4,7] = 0
 R9: x_kij[0,2,0] + x_kij[0,2,1] + x_kij[0,2,3] + x_kij[0,2,4]
   + x_kij[0,2,5] + x_kij[0,2,6] + x_kij[0,2,7] - x_kij[0,5,4]
   - x_kij[0,5,6] - x_kij[0,5,7] = 0
 R10: x_kij[0,3,0] + x_kij[0,3,1] + x_kij[0,3,2] + x_kij[0,3,4]
   + x_kij[0,3,5] + x_kij[0,3,6] + x_kij[0,3,7] - x_kij[0,6,4]
   - x_kij[0,6,5] - x_kij[0,6,7] = 0
 R11: x_kij[0,1,0] + x_kij[0,1,2] + x_kij[0,1,3] + x_kij[0,1,4]
   + x_kij[0,1,5] + x_kij[0,1,6] + x_kij[0,1,7] - z_i[1] = 0
 R12: x_kij[0,2,0] + x_kij[0,2,1] + x_kij[0,2,3] + x_kij[0,2,4]
   + x_kij[0,2,5] + x_kij[0,2,6] + x_kij[0,2,7] - z_i[2] = 0
 R13: x_kij[0,3,0] + x_kij[0,3,1] + x_kij[0,3,2] + x_kij[0,3,4]
   + x_kij[0,3,5] + x_kij[0,3,6] + x_kij[0,3,7] - z_i[3] = 0
 R14: x_kij[0,1,0] + x_kij[0,2,0] + x_kij[0,3,0] + x_kij[0,4,0]
   + x_kij[0,5,0] + x_kij[0,6,0] + x_kij[0,7,0] <= 1
 R15: x_kij[0,0,1] + x_kij[0,2,1] + x_kij[0,3,1] + x_kij[0,4,1]
   + x_kij[0,5,1] + x_kij[0,6,1] + x_kij[0,7,1] <= 1
 R16: x_kij[0,0,2] + x_kij[0,1,2] + x_kij[0,3,2] + x_kij[0,4,2]
   + x_kij[0,5,2] + x_kij[0,6,2] + x_kij[0,7,2] <= 1
 R17: x_kij[0,0,3] + x_kij[0,1,3] + x_kij[0,2,3] + x_kij[0,4,3]
   + x_kij[0,5,3] + x_kij[0,6,3] + x_kij[0,7,3] <= 1
 R18: x_kij[0,0,4] + x_kij[0,1,4] + x_kij[0,2,4] + x_kij[0,3,4]
   + x_kij[0,5,4] + x_kij[0,6,4] + x_kij[0,7,4] <= 1
 R19: x_kij[0,0,5] + x_kij[0,1,5] + x_kij[0,2,5] + x_kij[0,3,5]
   + x_kij[0,4,5] + x_kij[0,6,5] + x_kij[0,7,5] <= 1
 R20: x_kij[0,0,6] + x_kij[0,1,6] + x_kij[0,2,6] + x_kij[0,3,6]
   + x_kij[0,4,6] + x_kij[0,5,6] + x_kij[0,7,6] <= 1
 R21: x_kij[0,0,7] + x_kij[0,1,7] + x_kij[0,2,7] + x_kij[0,3,7]
   + x_kij[0,4,7] + x_kij[0,5,7] + x_kij[0,6,7] <= 1
 R22: x_kij[0,1,0] + x_kij[0,2,0] + x_kij[0,3,0] + x_kij[0,4,0]
   + x_kij[0,5,0] + x_kij[0,6,0] + x_kij[0,7,0] = 0
 R23: x_kij[0,7,0] + x_kij[0,7,1] + x_kij[0,7,2] + x_kij[0,7,3]
   + x_kij[0,7,4] + x_kij[0,7,5] + x_kij[0,7,6] = 0
 R24: t_ki[0,1] - t_ki[0,4] <= -18.11077027627483
 R25: t_ki[0,2] - t_ki[0,5] <= -16.49242250247064
 R26: t_ki[0,3] - t_ki[0,6] <= -20.8806130178211
 R27: 1000 x_kij[0,0,1] + t_ki[0,0] - t_ki[0,1] <= 992.788897449072
 R28: 1000 x_kij[0,0,2] + t_ki[0,0] - t_ki[0,2] <= 991.0557280900008
 R29: 1000 x_kij[0,0,3] + t_ki[0,0] - t_ki[0,3] <= 987.3508893593265
 R30: 1000 x_kij[0,0,4] + t_ki[0,0] - t_ki[0,4] <= 976.5906001785607
 R31: 1000 x_kij[0,0,5] + t_ki[0,0] - t_ki[0,5] <= 976
 R32: 1000 x_kij[0,0,6] + t_ki[0,0] - t_ki[0,6] <= 967.9375609162372
 R33: 1000 x_kij[0,0,7] + t_ki[0,0] - t_ki[0,7] <= 965.4746469967358
 R34: 1000 x_kij[0,1,0] - t_ki[0,0] + t_ki[0,1] <= 992.788897449072
 R35: 1000 x_kij[0,1,2] + t_ki[0,1] - t_ki[0,2] <= 989.229670385731
 R36: 1000 x_kij[0,1,3] + t_ki[0,1] - t_ki[0,3] <= 991.7537887487647
 R37: 1000 x_kij[0,1,4] + t_ki[0,1] - t_ki[0,4] <= 981.8892297237252
 R38: 1000 x_kij[0,1,5] + t_ki[0,1] - t_ki[0,5] <= 979.1193869821789
 R39: 1000 x_kij[0,1,6] + t_ki[0,1] - t_ki[0,6] <= 970.879560442878
 R40: 1000 x_kij[0,1,7] + t_ki[0,1] - t_ki[0,7] <= 970
 R41: 1000 x_kij[0,2,0] - t_ki[0,0] + t_ki[0,2] <= 991.0557280900008
 R42: 1000 x_kij[0,2,1] - t_ki[0,1] + t_ki[0,2] <= 989.229670385731
 R43: 1000 x_kij[0,2,3] + t_ki[0,2] - t_ki[0,3] <= 991.0557280900008
 R44: 1000 x_kij[0,2,4] + t_ki[0,2] - t_ki[0,4] <= 981.5609110854142
 R45: 1000 x_kij[0,2,5] + t_ki[0,2] - t_ki[0,5] <= 983.5075774975294
 R46: 1000 x_kij[0,2,6] + t_ki[0,2] - t_ki[0,6] <= 975.9168108424154
 R47: 1000 x_kij[0,2,7] + t_ki[0,2] - t_ki[0,7] <= 972.1432234456317
 R48: 1000 x_kij[0,3,0] - t_ki[0,0] + t_ki[0,3] <= 987.3508893593265
 R49: 1000 x_kij[0,3,1] - t_ki[0,1] + t_ki[0,3] <= 991.7537887487647
 R50: 1000 x_kij[0,3,2] - t_ki[0,2] + t_ki[0,3] <= 991.0557280900008
 R51: 1000 x_kij[0,3,4] + t_ki[0,3] - t_ki[0,4] <= 989.229670385731
 R52: 1000 x_kij[0,3,5] + t_ki[0,3] - t_ki[0,5] <= 987.3508893593265
 R53: 1000 x_kij[0,3,6] + t_ki[0,3] - t_ki[0,6] <= 979.1193869821789
 R54: 1000 x_kij[0,3,7] + t_ki[0,3] - t_ki[0,7] <= 977.9092779656255
 R55: 1000 x_kij[0,4,0] - t_ki[0,0] + t_ki[0,4] <= 976.5906001785607
 R56: 1000 x_kij[0,4,1] - t_ki[0,1] + t_ki[0,4] <= 981.8892297237252
 R57: 1000 x_kij[0,4,2] - t_ki[0,2] + t_ki[0,4] <= 981.5609110854142
 R58: 1000 x_kij[0,4,3] - t_ki[0,3] + t_ki[0,4] <= 989.229670385731
 R59: 1000 x_kij[0,4,5] + t_ki[0,4] - t_ki[0,5] <= 991.7537887487647
 R60: 1000 x_kij[0,4,6] + t_ki[0,4] - t_ki[0,6] <= 985.857864376269
 R61: 1000 x_kij[0,4,7] + t_ki[0,4] - t_ki[0,7] <= 987.8344749394035
 R62: 1000 x_kij[0,5,0] - t_ki[0,0] + t_ki[0,5] <= 976
 R63: 1000 x_kij[0,5,1] - t_ki[0,1] + t_ki[0,5] <= 979.1193869821789
 R64: 1000 x_kij[0,5,2] - t_ki[0,2] + t_ki[0,5] <= 983.5075774975294
 R65: 1000 x_kij[0,5,3] - t_ki[0,3] + t_ki[0,5] <= 987.3508893593265
 R66: 1000 x_kij[0,5,4] - t_ki[0,4] + t_ki[0,5] <= 991.7537887487647
 R67: 1000 x_kij[0,5,6] + t_ki[0,5] - t_ki[0,6] <= 991.7537887487647
 R68: 1000 x_kij[0,5,7] + t_ki[0,5] - t_ki[0,7] <= 988.3380962103093
 R69: 1000 x_kij[0,6,0] - t_ki[0,0] + t_ki[0,6] <= 967.9375609162372
 R70: 1000 x_kij[0,6,1] - t_ki[0,1] + t_ki[0,6] <= 970.879560442878
 R71: 1000 x_kij[0,6,2] - t_ki[0,2] + t_ki[0,6] <= 975.9168108424154
 R72: 1000 x_kij[0,6,3] - t_ki[0,3] + t_ki[0,6] <= 979.1193869821789
 R73: 1000 x_kij[0,6,4] - t_ki[0,4] + t_ki[0,6] <= 985.857864376269
 R74: 1000 x_kij[0,6,5] - t_ki[0,5] + t_ki[0,6] <= 991.7537887487647
 R75: 1000 x_kij[0,6,7] + t_ki[0,6] - t_ki[0,7] <= 991.7537887487647
 R76: 1000 x_kij[0,7,0] - t_ki[0,0] + t_ki[0,7] <= 965.4746469967358
 R77: 1000 x_kij[0,7,1] - t_ki[0,1] + t_ki[0,7] <= 970
 R78: 1000 x_kij[0,7,2] - t_ki[0,2] + t_ki[0,7] <= 972.1432234456317
 R79: 1000 x_kij[0,7,3] - t_ki[0,3] + t_ki[0,7] <= 977.9092779656255
 R80: 1000 x_kij[0,7,4] - t_ki[0,4] + t_ki[0,7] <= 987.8344749394035
 R81: 1000 x_kij[0,7,5] - t_ki[0,5] + t_ki[0,7] <= 988.3380962103093
 R82: 1000 x_kij[0,7,6] - t_ki[0,6] + t_ki[0,7] <= 991.7537887487647
 R83: t_ki[0,4] >= 1
 R84: t_ki[0,5] >= 0
 R85: t_ki[0,6] >= 0
 R86: t_ki[0,4] <= 100
 R87: t_ki[0,5] <= 100
 R88: t_ki[0,6] <= 200
 R89: t_ki[0,7] >= 100
 R90: t_ki[0,7] <= 1000
 R91: - t_ki[0,1] + t_ki[0,4] <= 10000
 R92: - t_ki[0,2] + t_ki[0,5] <= 10000
 R93: - t_ki[0,3] + t_ki[0,6] <= 10000
 R94: - t_ki[0,0] + t_ki[0,7] <= 10000
 R95: x_kij[0,1,0] + x_kij[0,1,2] + x_kij[0,1,3] + x_kij[0,1,4]
   + x_kij[0,1,5] + x_kij[0,1,6] + x_kij[0,1,7] + x_kij[0,2,0]
   + x_kij[0,2,1] + x_kij[0,2,3] + x_kij[0,2,4] + x_kij[0,2,5]
   + x_kij[0,2,6] + x_kij[0,2,7] + x_kij[0,3,0] + x_kij[0,3,1]
   + x_kij[0,3,2] + x_kij[0,3,4] + x_kij[0,3,5] + x_kij[0,3,6]
   + x_kij[0,3,7] <= 4
 qc0: 18.11077027627483 x_kij[0,1,4] + [ x_kij[0,1,4] * t_ki[0,1] ] >= 1
 qc1: 20.8806130178211 x_kij[0,1,5] + [ x_kij[0,1,5] * t_ki[0,1] ] >= 0
 qc2: 29.12043955712207 x_kij[0,1,6] + [ x_kij[0,1,6] * t_ki[0,1] ] >= 0
 qc3: 18.43908891458577 x_kij[0,2,4] + [ x_kij[0,2,4] * t_ki[0,2] ] >= 1
 qc4: 16.49242250247064 x_kij[0,2,5] + [ x_kij[0,2,5] * t_ki[0,2] ] >= 0
 qc5: 24.08318915758459 x_kij[0,2,6] + [ x_kij[0,2,6] * t_ki[0,2] ] >= 0
 qc6: 10.77032961426901 x_kij[0,3,4] + [ x_kij[0,3,4] * t_ki[0,3] ] >= 1
 qc7: 12.64911064067352 x_kij[0,3,5] + [ x_kij[0,3,5] * t_ki[0,3] ] >= 0
 qc8: 20.8806130178211 x_kij[0,3,6] + [ x_kij[0,3,6] * t_ki[0,3] ] >= 0
 qc9: 18.11077027627483 x_kij[0,1,4] + [ x_kij[0,1,4] * t_ki[0,1] ] <= 100
 qc10: 20.8806130178211 x_kij[0,1,5] + [ x_kij[0,1,5] * t_ki[0,1] ] <= 100
 qc11: 29.12043955712207 x_kij[0,1,6] + [ x_kij[0,1,6] * t_ki[0,1] ]
   <= 200
 qc12: 18.43908891458577 x_kij[0,2,4] + [ x_kij[0,2,4] * t_ki[0,2] ]
   <= 100
 qc13: 16.49242250247064 x_kij[0,2,5] + [ x_kij[0,2,5] * t_ki[0,2] ]
   <= 100
 qc14: 24.08318915758459 x_kij[0,2,6] + [ x_kij[0,2,6] * t_ki[0,2] ]
   <= 200
 qc15: 10.77032961426901 x_kij[0,3,4] + [ x_kij[0,3,4] * t_ki[0,3] ]
   <= 100
 qc16: 12.64911064067352 x_kij[0,3,5] + [ x_kij[0,3,5] * t_ki[0,3] ]
   <= 100
 qc17: 20.8806130178211 x_kij[0,3,6] + [ x_kij[0,3,6] * t_ki[0,3] ] <= 200
Bounds
Binaries
 x_kij[0,0,1] x_kij[0,0,2] x_kij[0,0,3] x_kij[0,0,4] x_kij[0,0,5]
 x_kij[0,0,6] x_kij[0,0,7] x_kij[0,1,0] x_kij[0,1,2] x_kij[0,1,3]
 x_kij[0,1,4] x_kij[0,1,5] x_kij[0,1,6] x_kij[0,1,7] x_kij[0,2,0]
 x_kij[0,2,1] x_kij[0,2,3] x_kij[0,2,4] x_kij[0,2,5] x_kij[0,2,6]
 x_kij[0,2,7] x_kij[0,3,0] x_kij[0,3,1] x_kij[0,3,2] x_kij[0,3,4]
 x_kij[0,3,5] x_kij[0,3,6] x_kij[0,3,7] x_kij[0,4,0] x_kij[0,4,1]
 x_kij[0,4,2] x_kij[0,4,3] x_kij[0,4,5] x_kij[0,4,6] x_kij[0,4,7]
 x_kij[0,5,0] x_kij[0,5,1] x_kij[0,5,2] x_kij[0,5,3] x_kij[0,5,4]
 x_kij[0,5,6] x_kij[0,5,7] x_kij[0,6,0] x_kij[0,6,1] x_kij[0,6,2]
 x_kij[0,6,3] x_kij[0,6,4] x_kij[0,6,5] x_kij[0,6,7] x_kij[0,7,0]
 x_kij[0,7,1] x_kij[0,7,2] x_kij[0,7,3] x_kij[0,7,4] x_kij[0,7,5]
 x_kij[0,7,6] z_i[1] z_i[2] z_i[3]
End
